sat

(objectives
 ((bvadd PriceProv5 (bvadd PriceProv4 (bvadd PriceProv3 (bvadd PriceProv1 PriceProv2)))) (_ bv1079 32))
)
;; statistics
(
 :cnf-variables 913
 :cnf-literals 3425
 :cnf-clauses 1485
 :sat-checks 12
 :sat-restarts 23
 :sat-decisions 17811
 :sat-random-decisions 7
 :sat-propagations 52075235
 :sat-theory-propagations 1
 :sat-watched-clauses-visited 55965978
 :sat-binary-watched-clauses-visited 36023951
 :sat-conflicts 4479
 :sat-theory-conflicts 0
 :theory-necessary-interface-equalities 0
 :theory-extra-interface-equalities 0
 :euf-total-calls 19145
 :euf-complete-calls 12
 :euf-conflicts 0
 :euf-implications 1
 :euf-explanations 0
 :euf-egraph-nodes-created 8232
 :euf-egraph-nodes-deleted 6198
 :euf-num-asserted-equalities 224613
 :euf-num-asserted-inequalities 132145
 :euf-num-merges 387371
 :euf-num-merges-undone 387371
 :euf-num-atoms-retold 1248
 :la-total-calls 19145
 :la-complete-calls 12
 :la-conflicts 0
 :la-implications 0
 :la-explanations 0
 :la-num-equalities-split 0
 :la-num-tableau-rows 0
 :la-num-tableau-variables 0
 :bv-total-calls 19145
 :bv-complete-calls 12
 :bv-conflicts 0
 :bv-implications 0
 :bv-explanations 0
 :fp-total-calls 19145
 :fp-complete-calls 12
 :fp-conflicts 0
 :fp-implications 0
 :fp-explanations 0
 :arr-total-calls 19145
 :arr-complete-calls 12
 :arr-conflicts 0
 :arr-implications 0
 :arr-explanations 0
 :arr-write-lemmas-added 0
 :arr-row-lemmas-added 0
 :arr-ext-lemmas-added 0
 :arr-const-lemmas-added 0
 :na-total-calls 19145
 :na-complete-calls 12
 :na-conflicts 0
 :na-implications 0
 :na-explanations 0
 :na-num_nonlinear_multiplications 0
 :na-num_axiom_checks 0
 :na-num_zero_lemmas 0
 :na-num_sign_lemmas 0
 :na-num_neutral_lemmas 0
 :na-num_proportionality_lemmas 0
 :na-num_bound_lemmas 0
 :na-num_tangent_lemmas 0
 :na-num_monotonicity_lemmas 0
 :na-num_sat_checks 0
 :na-axiom_check_time 0.000
 :na-sat_check_time 0.000
 :time-seconds 5.725
 :memory-mb 54.323
)
